8
15
0 15 15 15 15 15 15 15
0 1 9
1 0 9
0 2 11
2 0 11
0 3 11
3 0 11
0 4 8
4 0 8
0 5 4
5 0 4
0 6 7
6 0 7
0 7 8
7 0 8
1 2 5
2 1 5
1 3 12
3 1 12
1 4 10
4 1 10
1 5 10
5 1 10
1 6 11
6 1 11
1 7 12
7 1 12
2 3 6
3 2 6
2 4 7
4 2 7
2 5 4
5 2 4
2 6 8
6 2 8
2 7 9
7 2 9
3 4 2
4 3 2
3 5 7
5 3 7
3 6 9
6 3 9
3 7 8
7 3 8
4 5 3
5 4 3
4 6 6
6 4 6
4 7 5
7 4 5
5 6 4
6 5 4
5 7 9
7 5 9
6 7 8
7 6 8
